DATASET = "thpack6";
INSTANCE = "099";

WIDTH = 233;
HEIGHT = 220;
LENGTH = 587;

NO_OF_SHAPES = 15;
size = [|
  51,46,44 |
  95,92,47 |
  116,39,23 |
  51,37,32 |
  117,44,38 |
  103,89,73 |
  73,55,54 |
  116,98,40 |
  62,48,22 |
  106,38,30 |
  100,40,32 |
  87,53,26 |
  57,35,35 |
  80,75,75 |
  111,88,32 |
|];

verticality = [|
  1,1,1 |
  0,1,1 |
  0,1,1 |
  1,1,1 |
  0,1,1 |
  1,1,1 |
  1,1,1 |
  0,0,1 |
  0,0,1 |
  0,1,1 |
  0,1,1 |
  0,0,1 |
  1,1,1 |
  1,1,1 |
  0,0,1 |
|];

box_count = [
  14,
  14,
  7,
  7,
  8,
  7,
  6,
  9,
  8,
  7,
  7,
  5,
  4,
  11,
  6,
];
